NAME : TSP_INST.7868888.tour
COMMENT : Length = 7868888
COMMENT : Found by LKH [Keld Helsgaun] Sat Oct 18 11:07:54 2025
TYPE : TOUR
DIMENSION : 100
TOUR_SECTION
1
30
51
70
93
38
2
43
59
72
97
52
14
39
80
40
23
69
45
27
63
90
13
24
20
33
79
49
4
86
95
42
75
21
44
12
41
56
18
48
99
10
100
28
7
15
91
83
53
81
62
85
37
84
89
96
77
16
66
34
55
94
54
6
87
5
26
36
71
8
65
50
29
35
78
88
31
19
92
32
22
17
68
57
74
82
67
98
64
3
76
47
61
11
58
73
60
9
25
46
-1
EOF
